% File represents an instance of a Composite Structure problem to be solved by a CP framework
% Created on 2025-03-26 10:41:19.512
T = 58;
n = 9;
m = 12;
edges = [(1, 2),
(4, 5),
(7, 8),
(2, 3),
(5, 6),
(8, 9),
(1, 4),
(4, 7),
(2, 5),
(5, 8),
(3, 6),
(6, 9)];
counts = [|20, 12, 20, 6,
|20, 6, 20, 6,
|20, 6, 20, 2,
|20, 10, 20, 4,
|20, 6, 20, 4,
|18, 6, 18, 2,
|20, 8, 20, 4,
|20, 4, 20, 4,
|18, 4, 18, 2|];
